% seed = 6287414

mint = 69;
% maxt = 239;

nActs = 42;
dur = [0,10,6,3,9,9,5,10,1,3,4,4,10,4,2,4,7,2,2,10,10,7,6,4,5,9,6,8,10,2,9,5,6,10,6,6,1,8,3,8,5,0];

nSkills = 4;
sreq = [| 0,0,0,0,
	| 4,1,0,4,
	| 3,7,3,0,
	| 7,4,6,0,
	| 5,6,0,5,
	| 3,0,2,6,
	| 3,0,2,3,
	| 6,0,3,5,
	| 5,3,0,4,
	| 5,2,5,0,
	| 3,5,1,0,
	| 2,0,6,3,
	| 4,7,4,0,
	| 3,0,5,3,
	| 6,0,4,4,
	| 5,7,5,0,
	| 4,6,0,3,
	| 3,6,0,5,
	| 6,0,1,3,
	| 3,3,4,0,
	| 4,2,0,4,
	| 3,0,4,7,
	| 7,0,4,4,
	| 2,0,4,2,
	| 5,0,6,4,
	| 7,4,0,3,
	| 6,6,0,2,
	| 1,4,5,0,
	| 2,0,3,1,
	| 0,6,7,2,
	| 5,4,0,3,
	| 0,4,4,5,
	| 0,4,2,5,
	| 4,6,0,3,
	| 1,2,4,0,
	| 5,0,3,7,
	| 3,1,6,0,
	| 3,7,0,4,
	| 4,0,5,3,
	| 5,2,1,0,
	| 1,3,0,4,
	| 0,0,0,0, |];

nResources = 30;
mastery = [| false,false,false,true,
	| true,false,false,true,
	| false,true,true,false,
	| true,false,true,true,
	| true,true,true,false,
	| true,true,false,true,
	| true,true,true,false,
	| true,true,false,false,
	| false,false,true,false,
	| false,false,false,true,
	| false,false,false,true,
	| false,true,false,true,
	| false,true,true,true,
	| true,true,false,true,
	| true,false,false,false,
	| true,true,false,false,
	| false,true,true,false,
	| false,false,false,true,
	| false,true,false,false,
	| false,true,true,true,
	| true,false,true,true,
	| true,true,false,true,
	| false,true,false,true,
	| false,true,false,false,
	| false,false,true,false,
	| true,true,true,false,
	| true,true,true,false,
	| false,true,false,false,
	| true,true,false,false,
	| true,true,false,false, |];

nPrecs = 85;
pred = [1,1,1,2,2,2,3,3,3,4,4,4,5,6,6,6,7,7,7,8,8,8,9,9,9,10,10,10,11,11,11,12,13,13,14,14,15,15,16,16,16,17,17,17,18,18,19,19,20,20,20,21,22,23,23,23,24,24,25,25,26,27,27,27,28,29,29,29,30,31,31,32,32,33,33,34,35,35,36,37,37,38,39,40,41];
succ = [2,3,4,9,5,7,18,29,14,29,6,23,10,27,7,8,20,26,12,19,12,24,11,13,16,28,22,15,17,12,21,32,31,23,34,27,35,30,19,20,30,33,26,25,25,31,33,22,25,21,22,31,34,27,24,32,33,37,28,40,39,36,28,37,41,35,36,30,38,36,32,34,35,41,38,40,37,40,39,41,38,39,42,42,42];

nUnrels = 405;
unpred = [2,2,2,2,2,2,2,3,3,3,3,3,3,3,3,3,3,3,3,3,3,3,3,3,3,3,3,3,4,4,4,4,4,4,4,4,4,4,5,5,5,5,5,5,5,5,5,5,5,5,5,5,5,5,5,5,5,5,5,5,5,5,6,6,6,6,6,6,6,6,6,6,6,6,7,7,7,7,7,7,7,7,7,7,7,7,7,7,7,7,7,8,8,8,8,8,8,8,8,8,8,8,8,8,8,8,8,8,8,8,8,9,9,9,9,9,10,10,10,10,10,10,10,10,10,10,10,10,10,10,10,10,10,10,10,10,11,11,11,11,11,11,11,11,11,11,11,11,11,12,12,12,12,12,12,12,12,12,12,12,12,12,12,12,12,12,12,12,12,12,13,13,13,13,13,13,13,13,13,13,13,13,13,14,14,14,14,14,14,14,14,14,14,14,14,14,14,14,14,14,14,15,15,15,15,15,15,15,15,15,15,15,15,15,15,15,15,15,15,15,16,16,16,16,16,16,16,17,17,17,17,17,17,17,17,17,17,17,17,17,17,17,17,18,18,18,18,18,18,18,18,18,18,18,19,19,19,19,19,19,19,19,19,19,19,19,19,19,19,20,20,20,20,20,20,20,21,21,21,21,21,21,21,21,21,21,22,22,22,22,22,22,22,22,22,22,22,22,22,22,22,22,22,23,23,23,23,23,24,24,24,24,24,24,24,24,24,24,24,24,25,25,25,25,25,25,25,25,25,25,25,25,25,26,26,26,26,26,26,26,26,26,26,26,26,26,26,27,27,27,27,27,27,27,27,28,28,28,28,28,28,28,28,28,28,28,28,29,29,29,29,30,30,30,30,30,30,30,30,30,31,32,32,33,33,33,33,33,34,34,34,34,34,34,35,36,36,36,36,37,38,38,39,39,40];
unsucc = [3,4,6,8,14,18,29,4,5,6,7,8,9,10,11,12,13,15,16,17,19,20,21,22,23,24,26,33,5,9,10,11,13,14,15,16,17,18,6,7,8,9,11,12,13,14,16,17,18,19,20,21,23,24,25,26,27,29,31,32,33,36,9,10,11,13,14,15,16,17,18,23,29,30,8,9,10,11,13,14,15,16,17,18,19,23,24,27,29,30,33,9,10,11,13,14,15,16,17,18,20,21,23,25,26,27,28,29,30,31,36,10,14,15,18,29,11,12,13,14,16,17,18,19,20,21,23,24,25,26,27,29,31,32,33,36,13,14,15,16,18,19,20,22,23,24,27,29,30,13,14,15,16,17,18,19,20,21,22,23,24,25,26,27,28,29,30,31,33,36,14,15,16,17,18,19,20,21,22,25,26,29,30,15,16,17,18,19,20,21,22,23,24,25,26,29,30,31,32,33,35,16,17,18,19,20,21,22,23,24,25,26,27,28,29,31,32,33,34,36,17,18,23,24,26,27,29,18,19,20,21,22,23,24,27,29,30,31,32,34,35,36,37,19,20,21,22,23,24,26,27,29,30,33,20,21,23,24,25,26,27,28,29,30,31,32,35,36,37,23,24,26,27,29,30,33,22,23,24,25,26,27,28,29,30,33,23,24,25,26,27,28,29,30,31,32,33,35,36,37,38,39,41,25,26,29,30,31,25,26,27,28,29,30,31,32,34,35,36,40,26,27,29,30,31,32,33,34,35,36,37,38,39,27,28,29,30,31,32,33,34,35,36,37,38,40,41,29,30,31,32,33,34,35,40,29,30,31,32,33,34,35,36,37,38,39,40,31,32,33,34,31,32,33,34,35,36,37,40,41,33,33,36,34,35,36,37,40,35,36,37,38,39,41,36,37,38,40,41,40,40,41,40,41,41];

USEFUL_RES = [{},
	{1,2,3,4,5,6,7,8,10,11,12,13,14,15,16,17,18,19,20,21,22,23,24,26,27,28,29,30},
	{2,3,4,5,6,7,8,9,12,13,14,15,16,17,19,20,21,22,23,24,25,26,27,28,29,30},
	{2,3,4,5,6,7,8,9,12,13,14,15,16,17,19,20,21,22,23,24,25,26,27,28,29,30},
	{1,2,3,4,5,6,7,8,10,11,12,13,14,15,16,17,18,19,20,21,22,23,24,26,27,28,29,30},
	{1,2,3,4,5,6,7,8,9,10,11,12,13,14,15,16,17,18,20,21,22,23,25,26,27,29,30},
	{1,2,3,4,5,6,7,8,9,10,11,12,13,14,15,16,17,18,20,21,22,23,25,26,27,29,30},
	{1,2,3,4,5,6,7,8,9,10,11,12,13,14,15,16,17,18,20,21,22,23,25,26,27,29,30},
	{1,2,3,4,5,6,7,8,10,11,12,13,14,15,16,17,18,19,20,21,22,23,24,26,27,28,29,30},
	{2,3,4,5,6,7,8,9,12,13,14,15,16,17,19,20,21,22,23,24,25,26,27,28,29,30},
	{2,3,4,5,6,7,8,9,12,13,14,15,16,17,19,20,21,22,23,24,25,26,27,28,29,30},
	{1,2,3,4,5,6,7,8,9,10,11,12,13,14,15,16,17,18,20,21,22,23,25,26,27,29,30},
	{2,3,4,5,6,7,8,9,12,13,14,15,16,17,19,20,21,22,23,24,25,26,27,28,29,30},
	{1,2,3,4,5,6,7,8,9,10,11,12,13,14,15,16,17,18,20,21,22,23,25,26,27,29,30},
	{1,2,3,4,5,6,7,8,9,10,11,12,13,14,15,16,17,18,20,21,22,23,25,26,27,29,30},
	{2,3,4,5,6,7,8,9,12,13,14,15,16,17,19,20,21,22,23,24,25,26,27,28,29,30},
	{1,2,3,4,5,6,7,8,10,11,12,13,14,15,16,17,18,19,20,21,22,23,24,26,27,28,29,30},
	{1,2,3,4,5,6,7,8,10,11,12,13,14,15,16,17,18,19,20,21,22,23,24,26,27,28,29,30},
	{1,2,3,4,5,6,7,8,9,10,11,12,13,14,15,16,17,18,20,21,22,23,25,26,27,29,30},
	{2,3,4,5,6,7,8,9,12,13,14,15,16,17,19,20,21,22,23,24,25,26,27,28,29,30},
	{1,2,3,4,5,6,7,8,10,11,12,13,14,15,16,17,18,19,20,21,22,23,24,26,27,28,29,30},
	{1,2,3,4,5,6,7,8,9,10,11,12,13,14,15,16,17,18,20,21,22,23,25,26,27,29,30},
	{1,2,3,4,5,6,7,8,9,10,11,12,13,14,15,16,17,18,20,21,22,23,25,26,27,29,30},
	{1,2,3,4,5,6,7,8,9,10,11,12,13,14,15,16,17,18,20,21,22,23,25,26,27,29,30},
	{1,2,3,4,5,6,7,8,9,10,11,12,13,14,15,16,17,18,20,21,22,23,25,26,27,29,30},
	{1,2,3,4,5,6,7,8,10,11,12,13,14,15,16,17,18,19,20,21,22,23,24,26,27,28,29,30},
	{1,2,3,4,5,6,7,8,10,11,12,13,14,15,16,17,18,19,20,21,22,23,24,26,27,28,29,30},
	{2,3,4,5,6,7,8,9,12,13,14,15,16,17,19,20,21,22,23,24,25,26,27,28,29,30},
	{1,2,3,4,5,6,7,8,9,10,11,12,13,14,15,16,17,18,20,21,22,23,25,26,27,29,30},
	{1,2,3,4,5,6,7,8,9,10,11,12,13,14,16,17,18,19,20,21,22,23,24,25,26,27,28,29,30},
	{1,2,3,4,5,6,7,8,10,11,12,13,14,15,16,17,18,19,20,21,22,23,24,26,27,28,29,30},
	{1,2,3,4,5,6,7,8,9,10,11,12,13,14,16,17,18,19,20,21,22,23,24,25,26,27,28,29,30},
	{1,2,3,4,5,6,7,8,9,10,11,12,13,14,16,17,18,19,20,21,22,23,24,25,26,27,28,29,30},
	{1,2,3,4,5,6,7,8,10,11,12,13,14,15,16,17,18,19,20,21,22,23,24,26,27,28,29,30},
	{2,3,4,5,6,7,8,9,12,13,14,15,16,17,19,20,21,22,23,24,25,26,27,28,29,30},
	{1,2,3,4,5,6,7,8,9,10,11,12,13,14,15,16,17,18,20,21,22,23,25,26,27,29,30},
	{2,3,4,5,6,7,8,9,12,13,14,15,16,17,19,20,21,22,23,24,25,26,27,28,29,30},
	{1,2,3,4,5,6,7,8,10,11,12,13,14,15,16,17,18,19,20,21,22,23,24,26,27,28,29,30},
	{1,2,3,4,5,6,7,8,9,10,11,12,13,14,15,16,17,18,20,21,22,23,25,26,27,29,30},
	{2,3,4,5,6,7,8,9,12,13,14,15,16,17,19,20,21,22,23,24,25,26,27,28,29,30},
	{1,2,3,4,5,6,7,8,10,11,12,13,14,15,16,17,18,19,20,21,22,23,24,26,27,28,29,30},
	{}];

POTENTIAL_ACT = [{2,5,6,7,8,9,12,14,15,17,18,19,21,22,23,24,25,26,27,29,30,31,32,33,34,36,38,39,41},
	{2,3,4,5,6,7,8,9,10,11,12,13,14,15,16,17,18,19,20,21,22,23,24,25,26,27,28,29,30,31,32,33,34,35,36,37,38,39,40,41},
	{2,3,4,5,6,7,8,9,10,11,12,13,14,15,16,17,18,19,20,21,22,23,24,25,26,27,28,29,30,31,32,33,34,35,36,37,38,39,40,41},
	{2,3,4,5,6,7,8,9,10,11,12,13,14,15,16,17,18,19,20,21,22,23,24,25,26,27,28,29,30,31,32,33,34,35,36,37,38,39,40,41},
	{2,3,4,5,6,7,8,9,10,11,12,13,14,15,16,17,18,19,20,21,22,23,24,25,26,27,28,29,30,31,32,33,34,35,36,37,38,39,40,41},
	{2,3,4,5,6,7,8,9,10,11,12,13,14,15,16,17,18,19,20,21,22,23,24,25,26,27,28,29,30,31,32,33,34,35,36,37,38,39,40,41},
	{2,3,4,5,6,7,8,9,10,11,12,13,14,15,16,17,18,19,20,21,22,23,24,25,26,27,28,29,30,31,32,33,34,35,36,37,38,39,40,41},
	{2,3,4,5,6,7,8,9,10,11,12,13,14,15,16,17,18,19,20,21,22,23,24,25,26,27,28,29,30,31,32,33,34,35,36,37,38,39,40,41},
	{3,4,6,7,8,10,11,12,13,14,15,16,19,20,22,23,24,25,28,29,30,32,33,35,36,37,39,40},
	{2,5,6,7,8,9,12,14,15,17,18,19,21,22,23,24,25,26,27,29,30,31,32,33,34,36,38,39,41},
	{2,5,6,7,8,9,12,14,15,17,18,19,21,22,23,24,25,26,27,29,30,31,32,33,34,36,38,39,41},
	{2,3,4,5,6,7,8,9,10,11,12,13,14,15,16,17,18,19,20,21,22,23,24,25,26,27,28,29,30,31,32,33,34,35,36,37,38,39,40,41},
	{2,3,4,5,6,7,8,9,10,11,12,13,14,15,16,17,18,19,20,21,22,23,24,25,26,27,28,29,30,31,32,33,34,35,36,37,38,39,40,41},
	{2,3,4,5,6,7,8,9,10,11,12,13,14,15,16,17,18,19,20,21,22,23,24,25,26,27,28,29,30,31,32,33,34,35,36,37,38,39,40,41},
	{2,3,4,5,6,7,8,9,10,11,12,13,14,15,16,17,18,19,20,21,22,23,24,25,26,27,28,29,31,34,35,36,37,38,39,40,41},
	{2,3,4,5,6,7,8,9,10,11,12,13,14,15,16,17,18,19,20,21,22,23,24,25,26,27,28,29,30,31,32,33,34,35,36,37,38,39,40,41},
	{2,3,4,5,6,7,8,9,10,11,12,13,14,15,16,17,18,19,20,21,22,23,24,25,26,27,28,29,30,31,32,33,34,35,36,37,38,39,40,41},
	{2,5,6,7,8,9,12,14,15,17,18,19,21,22,23,24,25,26,27,29,30,31,32,33,34,36,38,39,41},
	{2,3,4,5,9,10,11,13,16,17,18,20,21,26,27,28,30,31,32,33,34,35,37,38,40,41},
	{2,3,4,5,6,7,8,9,10,11,12,13,14,15,16,17,18,19,20,21,22,23,24,25,26,27,28,29,30,31,32,33,34,35,36,37,38,39,40,41},
	{2,3,4,5,6,7,8,9,10,11,12,13,14,15,16,17,18,19,20,21,22,23,24,25,26,27,28,29,30,31,32,33,34,35,36,37,38,39,40,41},
	{2,3,4,5,6,7,8,9,10,11,12,13,14,15,16,17,18,19,20,21,22,23,24,25,26,27,28,29,30,31,32,33,34,35,36,37,38,39,40,41},
	{2,3,4,5,6,7,8,9,10,11,12,13,14,15,16,17,18,19,20,21,22,23,24,25,26,27,28,29,30,31,32,33,34,35,36,37,38,39,40,41},
	{2,3,4,5,9,10,11,13,16,17,18,20,21,26,27,28,30,31,32,33,34,35,37,38,40,41},
	{3,4,6,7,8,10,11,12,13,14,15,16,19,20,22,23,24,25,28,29,30,32,33,35,36,37,39,40},
	{2,3,4,5,6,7,8,9,10,11,12,13,14,15,16,17,18,19,20,21,22,23,24,25,26,27,28,29,30,31,32,33,34,35,36,37,38,39,40,41},
	{2,3,4,5,6,7,8,9,10,11,12,13,14,15,16,17,18,19,20,21,22,23,24,25,26,27,28,29,30,31,32,33,34,35,36,37,38,39,40,41},
	{2,3,4,5,9,10,11,13,16,17,18,20,21,26,27,28,30,31,32,33,34,35,37,38,40,41},
	{2,3,4,5,6,7,8,9,10,11,12,13,14,15,16,17,18,19,20,21,22,23,24,25,26,27,28,29,30,31,32,33,34,35,36,37,38,39,40,41},
	{2,3,4,5,6,7,8,9,10,11,12,13,14,15,16,17,18,19,20,21,22,23,24,25,26,27,28,29,30,31,32,33,34,35,36,37,38,39,40,41}];
